7	7	7	7	7	7	7	7	7	4	4	4	4	4	4	4	4	4	4	4	4	4	4	4	4	4	4	4	4	4	4	4	4	4	4	4	4	4	4	4	4	4	4	4	4	4	4	4	4	4	4	4	4	4	7	7	7	7	7	7	7	7	7
7	7	7	7	7	7	7	7	4	4	5	5	5	5	5	5	5	5	5	5	5	5	5	5	5	5	5	5	5	5	5	5	5	5	5	5	5	5	5	5	5	5	5	5	5	5	5	5	5	5	5	5	4	4	4	7	7	7	7	7	7	7	7
7	7	7	7	7	7	7	4	4	5	5	5	5	4	5	5	5	5	4	5	5	5	5	4	5	5	5	5	4	5	5	5	5	4	5	5	5	5	4	5	5	5	5	4	5	5	5	5	4	5	5	4	4	5	4	4	7	7	7	7	7	7	7
7	7	7	7	7	7	4	4	5	5	5	5	4	5	5	5	5	4	5	5	5	5	4	5	5	5	5	4	5	5	5	5	4	5	5	5	5	4	5	5	5	5	4	5	5	5	5	4	5	5	4	4	5	5	5	4	4	7	7	7	7	7	7
7	7	7	7	7	4	4	5	5	4	5	4	5	5	4	5	4	5	5	4	5	4	5	5	4	5	4	5	5	4	5	4	5	5	4	5	4	5	5	4	5	4	5	5	4	5	4	5	5	4	4	5	5	4	5	5	4	4	7	7	7	7	7
7	7	7	7	4	4	5	5	4	5	5	5	5	4	5	5	5	5	4	5	5	5	5	4	5	5	5	5	4	5	5	5	5	4	5	5	5	5	4	5	5	5	5	4	5	5	5	5	4	4	5	5	4	5	4	5	5	4	4	7	7	7	7
7	7	7	4	4	5	5	4	5	5	5	5	4	5	5	5	5	4	5	5	5	5	4	5	5	5	5	4	5	5	5	5	4	5	5	5	5	4	5	5	5	5	4	5	5	5	5	4	4	5	5	5	5	4	5	5	5	5	4	4	7	7	7
7	7	4	4	5	5	5	5	5	5	5	5	5	5	5	5	5	5	5	5	5	5	5	5	5	5	5	5	5	5	5	5	5	5	5	5	5	5	5	5	5	5	5	5	5	5	4	4	5	5	5	5	5	5	5	5	5	5	5	4	4	7	7
7	4	4	4	4	4	4	4	4	4	4	4	4	4	4	4	4	4	4	4	4	4	4	4	4	4	4	4	4	4	4	4	4	4	4	4	4	4	4	4	4	4	4	4	4	4	4	4	4	4	4	4	4	4	4	4	4	4	4	4	4	4	7
4	4	4	5	4	5	4	5	4	5	4	5	4	5	4	5	4	5	4	5	4	5	4	5	4	5	4	5	4	5	4	5	4	5	4	5	4	5	4	5	4	5	4	5	4	4	4	5	4	5	4	5	4	5	4	5	4	5	4	5	4	4	4
7	4	5	5	5	5	5	5	5	5	5	5	5	5	5	5	5	5	5	5	5	5	5	5	5	5	5	5	5	5	5	5	5	5	5	5	5	5	5	5	5	5	5	5	5	4	5	5	5	5	5	5	5	5	5	5	5	5	5	5	5	4	7
7	4	5	5	5	5	5	5	5	5	5	5	5	5	5	5	5	5	5	5	5	5	5	5	5	5	5	5	5	5	5	5	5	5	5	5	5	5	5	5	5	5	5	5	5	4	5	5	5	5	5	5	5	5	5	5	5	5	5	5	5	4	7
7	4	5	5	5	5	4	4	4	4	4	4	4	4	4	4	4	5	5	5	5	5	5	5	5	5	4	4	4	4	4	4	4	4	4	4	4	4	4	4	5	5	5	5	5	4	5	4	4	4	4	4	4	4	4	4	4	4	4	4	5	4	7
7	3	2	2	2	2	3	6	6	6	6	4	6	6	6	6	3	2	2	2	2	2	2	2	2	2	2	3	6	6	6	6	6	6	6	6	6	6	3	2	2	2	2	2	2	3	2	2	3	2	3	6	6	4	6	6	3	2	3	2	2	3	7
7	3	5	5	5	5	4	7	7	7	7	4	7	7	7	7	4	5	5	5	5	5	5	5	5	5	5	4	7	7	7	7	7	7	7	7	7	7	4	5	5	5	5	5	5	4	5	5	4	5	4	7	7	4	7	7	4	5	4	5	5	3	7
7	3	5	5	5	5	4	7	7	7	7	4	7	7	7	7	4	5	5	5	5	5	5	5	5	5	5	4	7	7	7	7	7	7	7	7	7	7	4	5	5	5	5	5	5	4	5	5	4	5	4	7	7	4	7	7	4	5	4	5	5	3	7
7	3	5	5	5	5	4	4	4	4	4	4	4	4	4	4	4	5	5	5	5	5	5	5	5	5	5	4	7	7	7	7	7	7	7	7	7	7	4	5	5	5	5	5	5	4	5	5	4	5	4	7	7	4	7	7	4	5	4	5	5	3	7
7	3	5	5	5	5	4	7	7	7	7	4	7	7	7	7	4	5	4	5	5	5	5	5	5	5	5	4	7	7	7	7	7	7	7	7	7	7	4	5	5	5	5	5	5	4	5	5	4	5	4	7	7	4	7	7	4	5	4	5	5	3	7
7	3	5	5	5	5	4	7	7	7	7	4	7	7	7	7	4	5	5	4	5	5	4	5	5	5	5	4	7	7	7	7	7	7	7	7	7	7	4	5	5	5	5	5	5	4	5	5	4	5	4	7	7	4	7	7	4	5	4	5	5	3	7
7	3	5	5	5	5	4	7	7	7	7	4	7	7	7	7	4	4	4	5	5	5	5	4	5	5	5	4	7	7	7	7	7	7	7	7	7	7	4	5	5	5	5	5	5	4	5	5	4	5	4	7	7	4	7	7	4	5	4	5	5	3	7
7	3	2	2	2	2	3	3	3	3	3	3	3	3	3	3	3	2	2	3	2	2	3	2	3	2	2	3	6	6	6	6	6	6	6	6	6	6	3	2	2	2	2	2	2	3	2	2	3	3	6	6	6	3	6	6	6	3	3	2	2	3	7
7	3	5	2	5	5	5	5	5	5	5	5	5	5	5	5	5	5	5	5	4	4	5	5	5	5	5	4	7	7	7	7	7	7	7	7	7	7	4	5	5	5	5	5	5	4	5	5	4	7	7	7	7	4	7	7	7	7	4	5	5	3	7
7	3	5	2	5	5	5	5	5	5	5	5	5	5	5	5	5	5	5	4	5	5	4	5	5	5	5	4	7	7	7	7	7	7	7	7	7	7	4	5	5	5	5	5	5	4	5	4	4	4	4	4	4	4	4	4	4	4	4	4	5	3	7
7	3	5	2	5	5	5	5	5	5	5	5	5	5	5	5	5	4	4	5	5	5	5	4	5	5	5	4	7	7	7	7	7	7	7	7	7	7	4	5	5	5	5	5	5	4	5	5	5	5	5	5	5	5	5	5	5	5	5	5	5	3	7
7	3	5	2	5	5	5	5	5	5	5	5	5	5	5	5	5	5	5	5	5	5	5	4	5	5	5	4	7	7	7	7	7	7	7	7	7	7	4	5	5	5	5	5	5	4	5	5	5	5	5	5	5	5	5	5	5	5	5	5	5	3	7
7	3	5	2	5	5	5	5	5	5	5	5	5	5	5	5	5	5	5	5	5	5	4	5	5	5	5	4	7	7	7	7	7	7	7	7	7	7	4	5	5	5	5	5	5	4	5	5	5	5	5	5	5	5	5	5	5	5	5	5	5	3	7
7	3	5	2	5	5	5	5	5	5	5	5	5	5	5	5	5	5	5	5	5	4	5	4	5	5	5	4	7	7	7	7	7	7	7	7	7	7	4	5	5	5	5	5	5	4	5	5	5	5	5	5	5	5	5	5	5	5	5	5	5	3	7
7	3	5	2	5	5	5	5	5	5	5	5	5	5	5	5	5	5	5	5	5	5	5	5	4	5	5	4	7	7	7	7	7	7	7	7	7	7	4	5	5	5	5	5	5	4	5	5	5	5	5	5	5	5	5	5	5	5	5	5	5	3	7
7	3	3	3	3	3	3	3	3	3	3	3	3	3	3	3	3	3	3	3	3	3	3	3	3	3	3	3	7	7	7	7	7	7	7	7	7	7	3	3	3	3	3	3	3	3	3	3	3	3	3	3	3	3	3	3	3	3	3	3	3	3	7
